NAME (null)_copy
ROWS
 N  OBJ
 E  c0      
 E  c1      
 E  c2      
 E  c3      
 E  c4      
 E  c5      
 E  c6      
 E  c7      
 E  c8      
 E  c9      
 E  c10     
 E  c11     
 E  c12     
 E  c13     
 E  c14     
 E  c15     
 E  c16     
 E  c17     
 L  c18     
 L  c19     
 L  c20     
 L  c21     
 L  c22     
 L  c23     
 L  c24     
 L  c25     
 L  c26     
 E  c27     
 E  c28     
 E  c29     
 E  c30     
 E  c31     
 E  c32     
 E  c33     
 E  c34     
 E  c35     
 L  c36     
 L  c37     
 L  c38     
 L  c39     
 L  c40     
 L  c41     
 L  c42     
 L  c43     
 L  c44     
 L  c45     
 L  c46     
 L  c47     
 L  c48     
 L  c49     
 L  c50     
 L  c51     
 L  c52     
 L  c53     
 L  c54     
 L  c55     
 L  c56     
 L  c57     
 L  c58     
 L  c59     
 L  c60     
 L  c61     
 L  c62     
 L  c63     
 L  c64     
 L  c65     
 L  c66     
 L  c67     
 L  c68     
 L  c69     
 L  c70     
 L  c71     
 L  c72     
 L  c73     
 L  c74     
 L  c75     
 L  c76     
 L  c77     
 L  c78     
 L  c79     
 L  c80     
 L  c81     
 L  c82     
 L  c83     
 L  c84     
 L  c85     
 L  c86     
 L  c87     
 L  c88     
 L  c89     
 L  c90     
 L  c91     
 L  c92     
 L  c93     
 L  c94     
 L  c95     
 L  c96     
 L  c97     
 L  c98     
 L  c99     
 L  c100    
 L  c101    
 L  c102    
 L  c103    
 L  c104    
 L  c105    
 L  c106    
 L  c107    
 L  c108    
 L  c109    
 L  c110    
 L  c111    
 L  c112    
 L  c113    
 L  c114    
 L  c115    
 L  c116    
 L  c117    
 L  c118    
 L  c119    
 L  c120    
 L  c121    
 L  c122    
 L  c123    
 L  c124    
 L  c125    
 L  c126    
 L  c127    
 L  c128    
COLUMNS
    MARKER    'MARKER'                 'INTORG'
    x[0,0,0]  c0        1
    x[0,0,0]  c3        -1
    x[0,0,0]  c18       1
    x[0,0,0]  c36       3
    x[0,0,0]  c45       3
    x[0,0,0]  c99       1
    x[0,0,0]  c111      1
    x[0,0,0]  c121      -1
    x[0,0,0]  c122      -1
    x[0,0,0]  c124      -1
    x[0,0,0]  c125      -1
    x[0,0,0]  c127      -1
    x[0,0,0]  c128      -1
    x[0,0,1]  c0        1
    x[0,0,1]  c4        -1
    x[0,0,1]  c19       1
    x[0,0,1]  c37       3
    x[0,0,1]  c48       3
    x[0,0,1]  c102      1
    x[0,0,1]  c114      1
    x[0,0,1]  c124      -1
    x[0,0,1]  c125      -1
    x[0,0,1]  c127      -1
    x[0,0,1]  c128      -1
    x[0,0,2]  c0        1
    x[0,0,2]  c20       1
    x[0,0,2]  c38       3
    x[0,0,2]  c51       3
    x[0,0,2]  c105      1
    x[0,0,2]  c117      1
    x[0,0,2]  c127      -1
    x[0,0,2]  c128      -1
    x[1,0,0]  c1        1
    x[1,0,0]  c5        -1
    x[1,0,0]  c21       1
    x[1,0,0]  c39       3
    x[1,0,0]  c46       3
    x[1,0,0]  c54       3
    x[1,0,0]  c83       -1
    x[1,0,0]  c92       -1
    x[1,0,0]  c100      1
    x[1,0,0]  c112      1
    x[1,0,0]  c122      -1
    x[1,0,0]  c125      -1
    x[1,0,0]  c128      -1
    x[1,0,1]  c1        1
    x[1,0,1]  c6        -1
    x[1,0,1]  c22       1
    x[1,0,1]  c40       3
    x[1,0,1]  c49       3
    x[1,0,1]  c56       3
    x[1,0,1]  c86       -1
    x[1,0,1]  c95       -1
    x[1,0,1]  c103      1
    x[1,0,1]  c115      1
    x[1,0,1]  c125      -1
    x[1,0,1]  c128      -1
    x[1,0,2]  c1        1
    x[1,0,2]  c23       1
    x[1,0,2]  c41       3
    x[1,0,2]  c52       3
    x[1,0,2]  c58       3
    x[1,0,2]  c89       -1
    x[1,0,2]  c98       -1
    x[1,0,2]  c106      1
    x[1,0,2]  c118      1
    x[1,0,2]  c128      -1
    x[2,0,0]  c2        1
    x[2,0,0]  c7        -1
    x[2,0,0]  c24       1
    x[2,0,0]  c42       3
    x[2,0,0]  c47       3
    x[2,0,0]  c55       3
    x[2,0,0]  c60       3
    x[2,0,0]  c101      1
    x[2,0,0]  c113      1
    x[2,0,1]  c2        1
    x[2,0,1]  c8        -1
    x[2,0,1]  c25       1
    x[2,0,1]  c43       3
    x[2,0,1]  c50       3
    x[2,0,1]  c57       3
    x[2,0,1]  c61       3
    x[2,0,1]  c104      1
    x[2,0,1]  c116      1
    x[2,0,2]  c2        1
    x[2,0,2]  c26       1
    x[2,0,2]  c44       3
    x[2,0,2]  c53       3
    x[2,0,2]  c59       3
    x[2,0,2]  c62       3
    x[2,0,2]  c107      1
    x[2,0,2]  c119      1
    y[0,0,0]  c63       -1
    y[0,0,0]  c108      1
    y[0,0,0]  c111      -1
    y[0,0,0]  c120      1
    y[0,0,1]  c66       -1
    y[0,0,1]  c109      1
    y[0,0,1]  c114      -1
    y[0,0,1]  c123      1
    y[0,0,2]  c69       -1
    y[0,0,2]  c110      1
    y[0,0,2]  c117      -1
    y[0,0,2]  c126      1
    y[1,0,0]  c64       -1
    y[1,0,0]  c108      1
    y[1,0,0]  c111      -1
    y[1,0,0]  c112      -1
    y[1,0,0]  c121      4
    y[1,0,1]  c67       -1
    y[1,0,1]  c109      1
    y[1,0,1]  c114      -1
    y[1,0,1]  c115      -1
    y[1,0,1]  c124      4
    y[1,0,2]  c70       -1
    y[1,0,2]  c110      1
    y[1,0,2]  c117      -1
    y[1,0,2]  c118      -1
    y[1,0,2]  c127      4
    y[2,0,0]  c64       -1
    y[2,0,0]  c65       -1
    y[2,0,0]  c108      1
    y[2,0,0]  c111      -1
    y[2,0,0]  c112      -1
    y[2,0,0]  c113      -1
    y[2,0,0]  c122      6
    y[2,0,1]  c67       -1
    y[2,0,1]  c68       -1
    y[2,0,1]  c109      1
    y[2,0,1]  c114      -1
    y[2,0,1]  c115      -1
    y[2,0,1]  c116      -1
    y[2,0,1]  c125      6
    y[2,0,2]  c70       -1
    y[2,0,2]  c71       -1
    y[2,0,2]  c110      1
    y[2,0,2]  c117      -1
    y[2,0,2]  c118      -1
    y[2,0,2]  c119      -1
    y[2,0,2]  c128      6
    z1[0,0,0]  c63       1
    z1[0,0,0]  c99       -1
    z2[0,0,0]  c72       3
    z2[0,0,0]  c99       -1
    z3[0,0,0]  c81       1
    z3[0,0,0]  c99       -1
    z3[0,0,0]  c120      1
    z3[0,0,0]  c121      1
    z3[0,0,0]  c122      1
    z4[0,0,0]  c90       1
    z4[0,0,0]  c99       -1
    z4[0,0,0]  c120      1
    z4[0,0,0]  c121      1
    z4[0,0,0]  c122      1
    z1[0,0,1]  c66       1
    z1[0,0,1]  c102      -1
    z2[0,0,1]  c75       3
    z2[0,0,1]  c102      -1
    z3[0,0,1]  c84       1
    z3[0,0,1]  c102      -1
    z3[0,0,1]  c123      1
    z3[0,0,1]  c124      1
    z3[0,0,1]  c125      1
    z4[0,0,1]  c93       1
    z4[0,0,1]  c102      -1
    z4[0,0,1]  c123      1
    z4[0,0,1]  c124      1
    z4[0,0,1]  c125      1
    z1[0,0,2]  c69       1
    z1[0,0,2]  c105      -1
    z2[0,0,2]  c78       3
    z2[0,0,2]  c105      -1
    z3[0,0,2]  c87       1
    z3[0,0,2]  c105      -1
    z3[0,0,2]  c126      1
    z3[0,0,2]  c127      1
    z3[0,0,2]  c128      1
    z4[0,0,2]  c96       1
    z4[0,0,2]  c105      -1
    z4[0,0,2]  c126      1
    z4[0,0,2]  c127      1
    z4[0,0,2]  c128      1
    z1[1,0,0]  c64       1
    z1[1,0,0]  c100      -1
    z2[1,0,0]  c73       3
    z2[1,0,0]  c100      -1
    z3[1,0,0]  c82       2
    z3[1,0,0]  c100      -1
    z3[1,0,0]  c120      1
    z3[1,0,0]  c121      1
    z3[1,0,0]  c122      1
    z4[1,0,0]  c91       2
    z4[1,0,0]  c100      -1
    z4[1,0,0]  c120      1
    z4[1,0,0]  c121      1
    z4[1,0,0]  c122      1
    z1[1,0,1]  c67       1
    z1[1,0,1]  c103      -1
    z2[1,0,1]  c76       3
    z2[1,0,1]  c103      -1
    z3[1,0,1]  c85       2
    z3[1,0,1]  c103      -1
    z3[1,0,1]  c123      1
    z3[1,0,1]  c124      1
    z3[1,0,1]  c125      1
    z4[1,0,1]  c94       2
    z4[1,0,1]  c103      -1
    z4[1,0,1]  c123      1
    z4[1,0,1]  c124      1
    z4[1,0,1]  c125      1
    z1[1,0,2]  c70       1
    z1[1,0,2]  c106      -1
    z2[1,0,2]  c79       3
    z2[1,0,2]  c106      -1
    z3[1,0,2]  c88       2
    z3[1,0,2]  c106      -1
    z3[1,0,2]  c126      1
    z3[1,0,2]  c127      1
    z3[1,0,2]  c128      1
    z4[1,0,2]  c97       2
    z4[1,0,2]  c106      -1
    z4[1,0,2]  c126      1
    z4[1,0,2]  c127      1
    z4[1,0,2]  c128      1
    z1[2,0,0]  c65       1
    z1[2,0,0]  c101      -1
    z2[2,0,0]  c74       3
    z2[2,0,0]  c101      -1
    z3[2,0,0]  c83       2
    z3[2,0,0]  c101      -1
    z3[2,0,0]  c120      1
    z3[2,0,0]  c121      1
    z3[2,0,0]  c122      1
    z4[2,0,0]  c92       2
    z4[2,0,0]  c101      -1
    z4[2,0,0]  c120      1
    z4[2,0,0]  c121      1
    z4[2,0,0]  c122      1
    z1[2,0,1]  c68       1
    z1[2,0,1]  c104      -1
    z2[2,0,1]  c77       3
    z2[2,0,1]  c104      -1
    z3[2,0,1]  c86       2
    z3[2,0,1]  c104      -1
    z3[2,0,1]  c123      1
    z3[2,0,1]  c124      1
    z3[2,0,1]  c125      1
    z4[2,0,1]  c95       2
    z4[2,0,1]  c104      -1
    z4[2,0,1]  c123      1
    z4[2,0,1]  c124      1
    z4[2,0,1]  c125      1
    z1[2,0,2]  c71       1
    z1[2,0,2]  c107      -1
    z2[2,0,2]  c80       3
    z2[2,0,2]  c107      -1
    z3[2,0,2]  c89       2
    z3[2,0,2]  c107      -1
    z3[2,0,2]  c126      1
    z3[2,0,2]  c127      1
    z3[2,0,2]  c128      1
    z4[2,0,2]  c98       2
    z4[2,0,2]  c107      -1
    z4[2,0,2]  c126      1
    z4[2,0,2]  c127      1
    z4[2,0,2]  c128      1
    u[0,0,0]  c18       -1
    u[0,0,0]  c27       1
    u[0,0,1]  c19       -1
    u[0,0,1]  c30       1
    u[0,0,2]  c20       -1
    u[0,0,2]  c33       1
    u[1,0,0]  c21       -1
    u[1,0,0]  c28       1
    u[1,0,1]  c22       -1
    u[1,0,1]  c31       1
    u[1,0,2]  c23       -1
    u[1,0,2]  c34       1
    u[2,0,0]  c24       -1
    u[2,0,0]  c29       1
    u[2,0,1]  c25       -1
    u[2,0,1]  c32       1
    u[2,0,2]  c26       -1
    u[2,0,2]  c35       1
    MARKER    'MARKER'                 'INTEND'
    h[0,0]    c3        1
    h[0,0]    c45       -1
    h[0,0]    c46       -1
    h[0,0]    c47       -1
    h[0,1]    c3        -1
    h[0,1]    c4        1
    h[0,1]    c48       -1
    h[0,1]    c49       -1
    h[0,1]    c50       -1
    h[0,2]    c4        -1
    h[0,2]    c51       -1
    h[0,2]    c52       -1
    h[0,2]    c53       -1
    h[1,0]    c5        1
    h[1,0]    c54       -1
    h[1,0]    c55       -1
    h[1,1]    c5        -1
    h[1,1]    c6        1
    h[1,1]    c56       -1
    h[1,1]    c57       -1
    h[1,2]    c6        -1
    h[1,2]    c58       -1
    h[1,2]    c59       -1
    h[2,0]    c7        1
    h[2,0]    c60       -1
    h[2,1]    c7        -1
    h[2,1]    c8        1
    h[2,1]    c61       -1
    h[2,2]    c8        -1
    h[2,2]    c62       -1
    e[0]      OBJ       1
    e[0]      c120      -1
    e[0]      c121      -1
    e[0]      c122      -1
    e[1]      OBJ       1
    e[1]      c123      -1
    e[1]      c124      -1
    e[1]      c125      -1
    e[2]      OBJ       1
    e[2]      c126      -1
    e[2]      c127      -1
    e[2]      c128      -1
RHS
    RHS1      c0        1
    RHS1      c1        1
    RHS1      c2        1
    RHS1      c27       1
    RHS1      c28       1
    RHS1      c29       1
    RHS1      c30       1
    RHS1      c31       1
    RHS1      c32       1
    RHS1      c33       1
    RHS1      c34       1
    RHS1      c35       1
    RHS1      c36       1001
    RHS1      c37       1001
    RHS1      c38       1001
    RHS1      c39       1002
    RHS1      c40       1002
    RHS1      c41       1002
    RHS1      c42       1002
    RHS1      c43       1002
    RHS1      c44       1002
    RHS1      c45       1
    RHS1      c46       2
    RHS1      c47       2
    RHS1      c48       1
    RHS1      c49       2
    RHS1      c50       2
    RHS1      c51       1
    RHS1      c52       2
    RHS1      c53       2
    RHS1      c54       2
    RHS1      c55       2
    RHS1      c56       2
    RHS1      c57       2
    RHS1      c58       2
    RHS1      c59       2
    RHS1      c60       2
    RHS1      c61       2
    RHS1      c62       2
    RHS1      c72       2
    RHS1      c73       1
    RHS1      c75       2
    RHS1      c76       1
    RHS1      c78       2
    RHS1      c79       1
    RHS1      c108      1
    RHS1      c109      1
    RHS1      c110      1
    RHS1      c120      1
    RHS1      c121      1
    RHS1      c122      1
    RHS1      c123      1
    RHS1      c124      1
    RHS1      c125      1
    RHS1      c126      1
    RHS1      c127      1
    RHS1      c128      1
BOUNDS
 BV BND1      x[0,0,0]
 BV BND1      x[0,0,1]
 BV BND1      x[0,0,2]
 BV BND1      x[1,0,0]
 BV BND1      x[1,0,1]
 BV BND1      x[1,0,2]
 BV BND1      x[2,0,0]
 BV BND1      x[2,0,1]
 BV BND1      x[2,0,2]
 BV BND1      y[0,0,0]
 BV BND1      y[0,0,1]
 BV BND1      y[0,0,2]
 BV BND1      y[1,0,0]
 BV BND1      y[1,0,1]
 BV BND1      y[1,0,2]
 BV BND1      y[2,0,0]
 BV BND1      y[2,0,1]
 BV BND1      y[2,0,2]
 BV BND1      z1[0,0,0]
 BV BND1      z2[0,0,0]
 BV BND1      z3[0,0,0]
 BV BND1      z4[0,0,0]
 BV BND1      z1[0,0,1]
 BV BND1      z2[0,0,1]
 BV BND1      z3[0,0,1]
 BV BND1      z4[0,0,1]
 BV BND1      z1[0,0,2]
 BV BND1      z2[0,0,2]
 BV BND1      z3[0,0,2]
 BV BND1      z4[0,0,2]
 BV BND1      z1[1,0,0]
 BV BND1      z2[1,0,0]
 BV BND1      z3[1,0,0]
 BV BND1      z4[1,0,0]
 BV BND1      z1[1,0,1]
 BV BND1      z2[1,0,1]
 BV BND1      z3[1,0,1]
 BV BND1      z4[1,0,1]
 BV BND1      z1[1,0,2]
 BV BND1      z2[1,0,2]
 BV BND1      z3[1,0,2]
 BV BND1      z4[1,0,2]
 BV BND1      z1[2,0,0]
 BV BND1      z2[2,0,0]
 BV BND1      z3[2,0,0]
 BV BND1      z4[2,0,0]
 BV BND1      z1[2,0,1]
 BV BND1      z2[2,0,1]
 BV BND1      z3[2,0,1]
 BV BND1      z4[2,0,1]
 BV BND1      z1[2,0,2]
 BV BND1      z2[2,0,2]
 BV BND1      z3[2,0,2]
 BV BND1      z4[2,0,2]
 BV BND1      u[0,0,0]
 BV BND1      u[0,0,1]
 BV BND1      u[0,0,2]
 BV BND1      u[1,0,0]
 BV BND1      u[1,0,1]
 BV BND1      u[1,0,2]
 BV BND1      u[2,0,0]
 BV BND1      u[2,0,1]
 BV BND1      u[2,0,2]
 FX BND1      h[0,0]    3
 UP BND1      h[0,1]    3
 UP BND1      h[0,2]    3
 FX BND1      h[1,0]    3
 UP BND1      h[1,1]    3
 UP BND1      h[1,2]    3
 FX BND1      h[2,0]    3
 UP BND1      h[2,1]    3
 UP BND1      h[2,2]    3
 UP BND1      e[0]      9
 UP BND1      e[1]      9
 UP BND1      e[2]      9
ENDATA
